Version identifier: 22.1.0.0 | 2022-03-09 | 1a383f8ce
CPXPARAM_Read_DataCheck                          1
1 of 1 MIP starts provided solutions.
MIP start 'm1' defined initial solution with objective 58.0000.
Tried aggregator 4 times.
MIP Presolve eliminated 81720 rows and 8119 columns.
MIP Presolve modified 990 coefficients.
Aggregator did 75663 substitutions.
Reduced MIP has 8343 rows, 76994 columns, and 162509 nonzeros.
Reduced MIP has 76958 binaries, 36 generals, 0 SOSs, and 0 indicators.
Presolve time = 0.94 sec. (1017.02 ticks)
Tried aggregator 1 time.
Detecting symmetries...
Reduced MIP has 8343 rows, 76994 columns, and 162509 nonzeros.
Reduced MIP has 76958 binaries, 36 generals, 0 SOSs, and 0 indicators.
Presolve time = 0.16 sec. (121.55 ticks)
Probing fixed 54 vars, tightened 0 bounds.
Probing changed sense of 5 constraints.
Probing time = 0.29 sec. (31.70 ticks)
Clique table members: 155849.
MIP emphasis: balance optimality and feasibility.
MIP search method: dynamic search.
Parallel mode: deterministic, using up to 8 threads.
Root relaxation solution time = 0.79 sec. (581.11 ticks)

        Nodes                                         Cuts/
   Node  Left     Objective  IInf  Best Integer    Best Bound    ItCnt     Gap

*     0+    0                           58.0000        0.0000           100.00%
      0     0       36.3971  6270       58.0000       36.3971       25   37.25%
      0     0        cutoff             58.0000                     47    0.00%
Elapsed time = 5.67 sec. (4180.01 ticks, tree = 0.01 MB, solutions = 1)

Zero-half cuts applied:  12
Gomory fractional cuts applied:  22

Root node processing (before b&c):
  Real time             =    5.68 sec. (4185.46 ticks)
Parallel b&c, 8 threads:
  Real time             =    0.00 sec. (0.00 ticks)
  Sync time (average)   =    0.00 sec.
  Wait time (average)   =    0.00 sec.
                          ------------
Total (root+branch&cut) =    5.68 sec. (4185.46 ticks)
